
Gurobi 9.5.2 (mac64[arm]) logging started Fri Apr 28 19:06:22 2023

Set parameter LogFile to value "Java/output/iterative_model_2_machine/scenario_seed_3_nJob_40_machineCount_2/mip_increment_2/log.txt"
Gurobi Optimizer version 9.5.2 build v9.5.2rc0 (mac64[arm])
Thread count: 8 physical cores, 8 logical processors, using up to 8 threads
Optimize a model with 1067 rows, 6048 columns and 43739 nonzeros
Model fingerprint: 0x18ee6a5b
Variable types: 0 continuous, 6048 integer (6048 binary)
Coefficient statistics:
  Matrix range     [1e+00, 2e+02]
  Objective range  [2e+01, 3e+06]
  Bounds range     [1e+00, 1e+00]
  RHS range        [1e+00, 1e+00]
Found heuristic solution: objective 1.791104e+07
Presolve removed 129 rows and 915 columns
Presolve time: 0.07s
Presolved: 938 rows, 5133 columns, 36572 nonzeros
Variable types: 0 continuous, 5133 integer (5131 binary)
Found heuristic solution: objective 1.281210e+07

Root relaxation: objective 8.699515e+03, 1175 iterations, 0.03 seconds (0.06 work units)

    Nodes    |    Current Node    |     Objective Bounds      |     Work
 Expl Unexpl |  Obj  Depth IntInf | Incumbent    BestBd   Gap | It/Node Time

     0     0 8699.51516    0  111 1.2812e+07 8699.51516   100%     -    0s
H    0     0                    4844880.0000 8699.51516   100%     -    0s
H    0     0                    224304.00000 8699.51516  96.1%     -    0s
H    0     0                    208064.00000 8699.51516  95.8%     -    0s
H    0     0                    178416.00000 8699.51516  95.1%     -    0s
     0     0 9267.50857    0  125 178416.000 9267.50857  94.8%     -    0s
     0     0 9267.50857    0  116 178416.000 9267.50857  94.8%     -    0s
H    0     0                    132240.00000 9267.50857  93.0%     -    0s
     0     0 9682.90628    0  150 132240.000 9682.90628  92.7%     -    0s
     0     0 9709.88199    0  149 132240.000 9709.88199  92.7%     -    0s
H    0     0                    127664.00000 9709.88199  92.4%     -    0s
H    0     0                    122080.00000 9709.88199  92.0%     -    0s
     0     0 11520.9721    0  140 122080.000 11520.9721  90.6%     -    0s
H    0     0                    122048.00000 11520.9721  90.6%     -    0s
H    0     0                    121792.00000 11520.9721  90.5%     -    0s
     0     0 11865.6327    0  132 121792.000 11865.6327  90.3%     -    0s
     0     0 11885.0962    0  144 121792.000 11885.0962  90.2%     -    0s
     0     0 11886.4929    0  145 121792.000 11886.4929  90.2%     -    0s
H    0     0                    116880.00000 11886.4929  89.8%     -    0s
H    0     0                    114864.00000 11886.4929  89.7%     -    0s
     0     0 16153.7029    0  153 114864.000 16153.7029  85.9%     -    0s
H    0     0                    100624.00000 16153.7029  83.9%     -    0s
H    0     0                    100592.00000 16153.7029  83.9%     -    0s
H    0     0                    95088.000000 16153.7029  83.0%     -    0s
     0     0 18890.6173    0  139 95088.0000 18890.6173  80.1%     -    0s
H    0     0                    88624.000000 18890.6173  78.7%     -    0s
     0     0 19086.4102    0  166 88624.0000 19086.4102  78.5%     -    0s
     0     0 19101.0781    0  161 88624.0000 19101.0781  78.4%     -    0s
     0     0 19108.6279    0  162 88624.0000 19108.6279  78.4%     -    0s
     0     0 19109.3567    0  164 88624.0000 19109.3567  78.4%     -    0s
     0     0 20281.9310    0  156 88624.0000 20281.9310  77.1%     -    0s
     0     0 20477.4288    0  162 88624.0000 20477.4288  76.9%     -    0s
     0     0 20569.8144    0  171 88624.0000 20569.8144  76.8%     -    0s
     0     0 20583.8108    0  170 88624.0000 20583.8108  76.8%     -    0s
     0     0 20590.8946    0  170 88624.0000 20590.8946  76.8%     -    0s
     0     0 20880.1277    0  130 88624.0000 20880.1277  76.4%     -    0s
H    0     0                    29312.000000 20880.1277  28.8%     -    0s
H    0     0                    22848.000000 20880.1277  8.61%     -    0s
     0     0 20906.6667    0   12 22848.0000 20906.6667  8.50%     -    0s
     0     0 20918.2406    0  160 22848.0000 20918.2406  8.45%     -    0s
     0     0 20924.0000    0   44 22848.0000 20924.0000  8.42%     -    0s
     0     0 20997.0989    0  170 22848.0000 20997.0989  8.10%     -    0s
     0     0 20997.0989    0   98 22848.0000 20997.0989  8.10%     -    0s
     0     0 20997.0989    0  112 22848.0000 20997.0989  8.10%     -    0s
     0     0 20997.0989    0  120 22848.0000 20997.0989  8.10%     -    0s
     0     0 21026.0026    0  136 22848.0000 21026.0026  7.97%     -    0s
     0     0 21055.2381    0   45 22848.0000 21055.2381  7.85%     -    0s
*    0     0               0    21136.000000 21136.0000  0.00%     -    0s

Cutting planes:
  Gomory: 1
  Cover: 1
  Clique: 13
  MIR: 18
  StrongCG: 10
  GUB cover: 25
  Zero half: 13
  RLT: 2

Explored 1 nodes (9797 simplex iterations) in 0.95 seconds (1.20 work units)
Thread count was 8 (of 8 available processors)

Solution count 10: 21136 22848 29312 ... 121792

Optimal solution found (tolerance 1.00e-04)
Best objective 2.113600000000e+04, best bound 2.113600000000e+04, gap 0.0000%

Gurobi 9.5.2 (mac64[arm]) logging started Fri Apr 28 19:06:23 2023

Set parameter LogFile to value "Java/output/iterative_model_2_machine/scenario_seed_3_nJob_40_machineCount_2/mip_increment_2/log.txt"
Gurobi Optimizer version 9.5.2 build v9.5.2rc0 (mac64[arm])
Thread count: 8 physical cores, 8 logical processors, using up to 8 threads
Optimize a model with 1061 rows, 4145 columns and 28894 nonzeros
Model fingerprint: 0x189d0af8
Variable types: 0 continuous, 4145 integer (4145 binary)
Coefficient statistics:
  Matrix range     [1e+00, 2e+02]
  Objective range  [2e+02, 4e+05]
  Bounds range     [1e+00, 1e+00]
  RHS range        [1e+00, 1e+00]
Presolve removed 310 rows and 481 columns
Presolve time: 0.04s
Presolved: 751 rows, 3664 columns, 25242 nonzeros
Variable types: 0 continuous, 3664 integer (3662 binary)

Root relaxation: objective 4.139961e+03, 584 iterations, 0.01 seconds (0.02 work units)

    Nodes    |    Current Node    |     Objective Bounds      |     Work
 Expl Unexpl |  Obj  Depth IntInf | Incumbent    BestBd   Gap | It/Node Time

     0     0 4139.96130    0   73          - 4139.96130      -     -    0s
H    0     0                    653292.00000 4139.96130  99.4%     -    0s
H    0     0                    402900.00000 4139.96130  99.0%     -    0s
H    0     0                    239204.00000 4139.96130  98.3%     -    0s
H    0     0                    238552.00000 4139.96130  98.3%     -    0s
H    0     0                    235140.00000 4155.58900  98.2%     -    0s
     0     0 4230.72952    0   97 235140.000 4230.72952  98.2%     -    0s
H    0     0                    185072.00000 4230.72952  97.7%     -    0s
H    0     0                    18616.000000 4230.72952  77.3%     -    0s
H    0     0                    13784.000000 4230.72952  69.3%     -    0s
     0     0 4425.44094    0   95 13784.0000 4425.44094  67.9%     -    0s
     0     0 4425.44094    0   72 13784.0000 4425.44094  67.9%     -    0s
H    0     0                    13764.000000 4425.44094  67.8%     -    0s
H    0     0                    13756.000000 4425.44094  67.8%     -    0s
H    0     0                    12728.000000 4425.44094  65.2%     -    0s
H    0     0                    10924.000000 4425.44094  59.5%     -    0s
     0     0 4425.44094    0  106 10924.0000 4425.44094  59.5%     -    0s
H    0     0                    10916.000000 4425.44094  59.5%     -    0s
H    0     0                    8696.0000000 4425.44094  49.1%     -    0s
H    0     0                    8656.0000000 4425.44094  48.9%     -    0s
     0     0 4428.02106    0   95 8656.00000 4428.02106  48.8%     -    0s
     0     0 4441.32661    0  106 8656.00000 4441.32661  48.7%     -    0s
H    0     0                    8608.0000000 4441.32661  48.4%     -    0s
     0     0 4586.34055    0  113 8608.00000 4586.34055  46.7%     -    0s
     0     0 4607.78253    0  111 8608.00000 4607.78253  46.5%     -    0s
     0     0 4607.98371    0  125 8608.00000 4607.98371  46.5%     -    0s
     0     0 4609.31130    0  125 8608.00000 4609.31130  46.5%     -    0s
     0     0 4609.31130    0  127 8608.00000 4609.31130  46.5%     -    0s
     0     0 4730.09901    0  122 8608.00000 4730.09901  45.0%     -    0s
H    0     0                    8592.0000000 4730.09901  44.9%     -    0s
     0     0 4770.86456    0  139 8592.00000 4770.86456  44.5%     -    0s
     0     0 4780.57438    0  129 8592.00000 4780.57438  44.4%     -    0s
     0     0 4780.62472    0  134 8592.00000 4780.62472  44.4%     -    0s
H    0     0                    7476.0000000 4780.62472  36.1%     -    0s
     0     0 4855.00000    0   81 7476.00000 4855.00000  35.1%     -    0s
H    0     0                    7468.0000000 4855.00000  35.0%     -    0s
H    0     0                    5408.0000000 4855.00000  10.2%     -    0s
     0     0 4859.77778    0  106 5408.00000 4859.77778  10.1%     -    0s
     0     0 4859.89630    0   96 5408.00000 4859.89630  10.1%     -    0s
     0     0 4863.84186    0   89 5408.00000 4863.84186  10.1%     -    0s
     0     0 4863.84186    0   71 5408.00000 4863.84186  10.1%     -    0s
H    0     0                    5048.0000000 4863.84186  3.65%     -    0s
     0     0 4863.84186    0   85 5048.00000 4863.84186  3.65%     -    0s
H    0     0                    5040.0000000 4863.84186  3.50%     -    0s
     0     0 4863.84186    0   86 5040.00000 4863.84186  3.50%     -    0s
     0     0 4874.00000    0   71 5040.00000 4874.00000  3.29%     -    0s
     0     0 4876.00000    0   38 5040.00000 4876.00000  3.25%     -    0s
     0     0 4876.00000    0   38 5040.00000 4876.00000  3.25%     -    0s
     0     0 4878.00000    0   39 5040.00000 4878.00000  3.21%     -    0s
*    0     0               0    4976.0000000 4976.00000  0.00%     -    0s

Cutting planes:
  Gomory: 1
  Lift-and-project: 2
  Cover: 2
  Clique: 14
  MIR: 10
  StrongCG: 3
  GUB cover: 16
  Zero half: 14
  Mod-K: 1
  RLT: 4
  Relax-and-lift: 1

Explored 1 nodes (5484 simplex iterations) in 0.53 seconds (0.56 work units)
Thread count was 8 (of 8 available processors)

Solution count 10: 4976 5040 5048 ... 8696

Optimal solution found (tolerance 1.00e-04)
Best objective 4.976000000000e+03, best bound 4.976000000000e+03, gap 0.0000%

Gurobi 9.5.2 (mac64[arm]) logging started Fri Apr 28 19:06:23 2023

Set parameter LogFile to value "Java/output/iterative_model_2_machine/scenario_seed_3_nJob_40_machineCount_2/mip_increment_2/log.txt"
Gurobi Optimizer version 9.5.2 build v9.5.2rc0 (mac64[arm])
Thread count: 8 physical cores, 8 logical processors, using up to 8 threads
Optimize a model with 1082 rows, 4054 columns and 28395 nonzeros
Model fingerprint: 0x544be7bd
Variable types: 0 continuous, 4054 integer (4054 binary)
Coefficient statistics:
  Matrix range     [1e+00, 2e+02]
  Objective range  [6e+01, 6e+04]
  Bounds range     [1e+00, 1e+00]
  RHS range        [1e+00, 1e+00]
Presolve removed 524 rows and 996 columns
Presolve time: 0.03s
Presolved: 558 rows, 3058 columns, 20800 nonzeros
Variable types: 0 continuous, 3058 integer (3052 binary)

Root relaxation: objective 7.235017e+03, 1728 iterations, 0.04 seconds (0.06 work units)

    Nodes    |    Current Node    |     Objective Bounds      |     Work
 Expl Unexpl |  Obj  Depth IntInf | Incumbent    BestBd   Gap | It/Node Time

     0     0 7235.01742    0  115          - 7235.01742      -     -    0s
H    0     0                    118861.00000 7235.01742  93.9%     -    0s
H    0     0                    74834.000000 7235.01742  90.3%     -    0s
     0     0 7893.28925    0  149 74834.0000 7893.28925  89.5%     -    0s
H    0     0                    18122.000000 7893.28925  56.4%     -    0s
     0     0 7893.28925    0  146 18122.0000 7893.28925  56.4%     -    0s
     0     0 8184.05562    0  177 18122.0000 8184.05562  54.8%     -    0s
H    0     0                    14748.000000 8184.05562  44.5%     -    0s
     0     0 8211.92548    0  165 14748.0000 8211.92548  44.3%     -    0s
     0     0 8216.34895    0  164 14748.0000 8216.34895  44.3%     -    0s
     0     0 8216.34895    0  164 14748.0000 8216.34895  44.3%     -    0s
     0     0 8421.74756    0  194 14748.0000 8421.74756  42.9%     -    0s
H    0     0                    14744.000000 8421.74756  42.9%     -    0s
     0     0 8429.71618    0  184 14744.0000 8429.71618  42.8%     -    0s
     0     0 8431.52345    0  182 14744.0000 8431.52345  42.8%     -    0s
     0     0 8432.85627    0  181 14744.0000 8432.85627  42.8%     -    0s
     0     0 8432.85932    0  182 14744.0000 8432.85932  42.8%     -    0s
     0     0 8459.03404    0  174 14744.0000 8459.03404  42.6%     -    0s
H    0     0                    8848.0000000 8459.03404  4.40%     -    0s
H    0     0                    8486.0000000 8459.03404  0.32%     -    0s
     0     0 8464.00000    0   39 8486.00000 8464.00000  0.26%     -    0s
     0     0 8465.00000    0   62 8486.00000 8465.00000  0.25%     -    0s
     0     0 8465.20000    0   62 8486.00000 8465.20000  0.25%     -    0s
     0     0 8468.92308    0   56 8486.00000 8468.92308  0.20%     -    0s
     0     0 8468.92308    0   27 8486.00000 8468.92308  0.20%     -    0s
H    0     0                    8470.0000000 8468.92308  0.01%     -    0s
     0     0     cutoff    0      8470.00000 8470.00000  0.00%     -    0s

Cutting planes:
  Gomory: 5
  Cover: 4
  Clique: 5
  MIR: 3
  StrongCG: 1
  GUB cover: 3
  Zero half: 8
  RLT: 2

Explored 1 nodes (6976 simplex iterations) in 0.69 seconds (0.90 work units)
Thread count was 8 (of 8 available processors)

Solution count 9: 8470 8486 8486 ... 118861

Optimal solution found (tolerance 1.00e-04)
Best objective 8.470000000000e+03, best bound 8.470000000000e+03, gap 0.0000%

Gurobi 9.5.2 (mac64[arm]) logging started Fri Apr 28 19:06:24 2023

Set parameter LogFile to value "Java/output/iterative_model_2_machine/scenario_seed_3_nJob_40_machineCount_2/mip_increment_2/log.txt"
Gurobi Optimizer version 9.5.2 build v9.5.2rc0 (mac64[arm])
Thread count: 8 physical cores, 8 logical processors, using up to 8 threads
Optimize a model with 2190 rows, 37742 columns and 431237 nonzeros
Model fingerprint: 0xa8f38604
Variable types: 0 continuous, 37742 integer (37742 binary)
Coefficient statistics:
  Matrix range     [1e+00, 2e+02]
  Objective range  [1e+00, 3e+06]
  Bounds range     [1e+00, 1e+00]
  RHS range        [1e+00, 1e+00]

Warning: Completing partial solution with 37629 unfixed non-continuous variables out of 37742
User MIP start produced solution with objective 22498 (0.03s)
Loaded user MIP start with objective 22498

Presolve removed 122 rows and 5072 columns
Presolve time: 0.46s
Presolved: 2068 rows, 32670 columns, 373411 nonzeros
Variable types: 0 continuous, 32670 integer (32664 binary)
Found heuristic solution: objective 22482.000000

Root relaxation: objective 1.205215e+04, 22889 iterations, 2.99 seconds (7.17 work units)

    Nodes    |    Current Node    |     Objective Bounds      |     Work
 Expl Unexpl |  Obj  Depth IntInf | Incumbent    BestBd   Gap | It/Node Time

     0     0 12052.1501    0  414 22482.0000 12052.1501  46.4%     -    3s
H    0     0                    22314.000000 12052.1501  46.0%     -    3s
H    0     0                    20887.000000 12052.1501  42.3%     -    4s
     0     0 12161.8201    0  431 20887.0000 12161.8201  41.8%     -    5s
     0     0 14168.0467    0  375 20887.0000 14168.0467  32.2%     -    8s
H    0     0                    20885.000000 14168.0467  32.2%     -    8s
H    0     0                    20736.000000 14168.0467  31.7%     -    8s
H    0     0                    20707.000000 14168.0467  31.6%     -    8s
     0     0 15299.4839    0  483 20707.0000 15299.4839  26.1%     -    9s
H    0     0                    20697.000000 15299.4839  26.1%     -    9s
H    0     0                    20685.000000 15299.4839  26.0%     -    9s
     0     0 15312.7825    0  508 20685.0000 15312.7825  26.0%     -   10s
     0     0 15312.8170    0  503 20685.0000 15312.8170  26.0%     -   10s
     0     0 16429.2177    0  500 20685.0000 16429.2177  20.6%     -   11s
     0     0 16686.7379    0  528 20685.0000 16686.7379  19.3%     -   12s
     0     0 16698.1503    0  537 20685.0000 16698.1503  19.3%     -   13s
     0     0 16698.1503    0  540 20685.0000 16698.1503  19.3%     -   13s
     0     0 17295.6160    0  532 20685.0000 17295.6160  16.4%     -   15s
     0     0 17374.5248    0  526 20685.0000 17374.5248  16.0%     -   16s
     0     0 17384.1298    0  594 20685.0000 17384.1298  16.0%     -   16s
     0     0 17385.9558    0  580 20685.0000 17385.9558  15.9%     -   16s
     0     0 17386.0037    0  583 20685.0000 17386.0037  15.9%     -   16s
     0     0 18016.4016    0  596 20685.0000 18016.4016  12.9%     -   19s
     0     0 18185.8461    0  615 20685.0000 18185.8461  12.1%     -   20s
     0     0 18202.4729    0  625 20685.0000 18202.4729  12.0%     -   20s
     0     0 18202.5123    0  632 20685.0000 18202.5123  12.0%     -   21s
     0     0 18295.5906    0  673 20685.0000 18295.5906  11.6%     -   21s
     0     0 18314.9882    0  669 20685.0000 18314.9882  11.5%     -   22s
     0     0 18376.9285    0  671 20685.0000 18376.9285  11.2%     -   22s
     0     0 18378.7553    0  674 20685.0000 18378.7553  11.1%     -   22s
     0     0 18379.7911    0  668 20685.0000 18379.7911  11.1%     -   22s
     0     0 18529.2823    0  666 20685.0000 18529.2823  10.4%     -   23s
     0     0 18546.1571    0  712 20685.0000 18546.1571  10.3%     -   23s
     0     0 18547.8564    0  732 20685.0000 18547.8564  10.3%     -   24s
     0     0 18715.7211    0  703 20685.0000 18715.7211  9.52%     -   25s
     0     0 18718.7289    0  702 20685.0000 18718.7289  9.51%     -   25s
     0     0 18719.9180    0  695 20685.0000 18719.9180  9.50%     -   25s
     0     0 18737.4121    0  704 20685.0000 18737.4121  9.42%     -   26s
     0     0 18737.4121    0  682 20685.0000 18737.4121  9.42%     -   27s
H    0     0                    20680.000000 18739.5076  9.38%     -   29s
     0     0 18739.5076    0  376 20680.0000 18739.5076  9.38%     -   30s
     0     0 18739.5076    0  479 20680.0000 18739.5076  9.38%     -   31s
     0     0 18739.5076    0  579 20680.0000 18739.5076  9.38%     -   32s
     0     0 18739.5076    0  605 20680.0000 18739.5076  9.38%     -   33s
     0     0 18739.5076    0  656 20680.0000 18739.5076  9.38%     -   33s
     0     0 18741.2730    0  662 20680.0000 18741.2730  9.37%     -   34s
     0     0 18744.1726    0  686 20680.0000 18744.1726  9.36%     -   34s
     0     0 18744.4390    0  686 20680.0000 18744.4390  9.36%     -   34s
     0     0 18755.8196    0  728 20680.0000 18755.8196  9.30%     -   34s
     0     0 18760.9016    0  709 20680.0000 18760.9016  9.28%     -   34s
     0     0 18762.2023    0  726 20680.0000 18762.2023  9.27%     -   35s
     0     0 19013.1730    0  730 20680.0000 19013.1730  8.06%     -   36s
     0     0 19092.7312    0  713 20680.0000 19092.7312  7.68%     -   37s
     0     0 19104.8268    0  738 20680.0000 19104.8268  7.62%     -   37s
     0     0 19105.9808    0  741 20680.0000 19105.9808  7.61%     -   37s
     0     0 19148.8086    0  727 20680.0000 19148.8086  7.40%     -   38s
     0     0 19184.9608    0  772 20680.0000 19184.9608  7.23%     -   39s
     0     0 19186.6187    0  772 20680.0000 19186.6187  7.22%     -   39s
     0     0 19200.5905    0  766 20680.0000 19200.5905  7.15%     -   40s
     0     0 19201.2773    0  780 20680.0000 19201.2773  7.15%     -   41s
     0     0 19206.6499    0  805 20680.0000 19206.6499  7.12%     -   42s
     0     0 19206.6499    0  758 20680.0000 19206.6499  7.12%     -   42s
H    0     0                    20565.000000 19209.0377  6.59%     -   43s
H    0     2                    20563.000000 19209.0377  6.58%     -   44s
     0     2 19209.0377    0  738 20563.0000 19209.0377  6.58%     -   44s
     1     4 19629.0058    1  663 20563.0000 19209.0377  6.58%  8009   45s
    14    18 19675.1045    4  430 20563.0000 19308.6807  6.10%  3213   50s
H   31    26                    20528.000000 19457.3497  5.22%  3799   54s
    38    30 19677.5943    7  267 20528.0000 19491.8931  5.05%  3696   56s
H   64    45                    20473.000000 19592.4394  4.30%  3285   60s
H   66    45                    20368.000000 19592.4394  3.81%  3227   60s
H   97    70                    20325.000000 19592.4394  3.60%  2947   63s
H   98    70                    20282.000000 19592.4394  3.40%  2935   63s
H  100    70                    20222.000000 19592.4394  3.11%  2906   63s
H  106    83                    20170.000000 19592.4394  2.86%  2862   64s
   119    99 19691.4172   11  229 20170.0000 19592.4394  2.86%  2844   65s
H  136   113                    20167.000000 19592.4394  2.85%  2750   66s
H  155   128                    20165.000000 19592.4394  2.84%  2727   67s
H  157   128                    19710.000000 19592.4394  0.60%  2701   67s
H  201   117                    19708.000000 19592.4394  0.59%  2223   69s
H  205   117                    19707.000000 19592.4394  0.58%  2237   69s
   219   123     cutoff   11      19707.0000 19674.2071  0.17%  2153   71s
H  242   130                    19705.000000 19674.2071  0.16%  2099   72s
   393   265 19697.3750   37   42 19705.0000 19675.1045  0.15%  1556   75s
H  510   297                    19704.000000 19675.1045  0.15%  1366   77s
   612   315     cutoff   12      19704.0000 19675.1045  0.15%  1285   80s
   796   362 19683.7808   10  344 19704.0000 19676.2780  0.14%  1280   85s
   940   359 19703.7697   14  222 19704.0000 19679.3931  0.12%  1311   92s
  1043   374 19692.6321   10  323 19704.0000 19683.0150  0.11%  1376   96s
H 1116   391                    19698.000000 19684.1075  0.07%  1382   98s
  1270   440 19694.6275   18  124 19698.0000 19691.4246  0.03%  1298  101s
H 2064   635                    19696.000000 19693.8988  0.01%   876  103s

Cutting planes:
  Gomory: 1
  Cover: 89
  Clique: 139
  MIR: 227
  StrongCG: 139
  GUB cover: 227
  Zero half: 35
  RLT: 14

Explored 3051 nodes (2072495 simplex iterations) in 104.45 seconds (271.89 work units)
Thread count was 8 (of 8 available processors)

Solution count 10: 19696 19698 19704 ... 20170

Optimal solution found (tolerance 1.00e-04)
Best objective 1.969600000000e+04, best bound 1.969600000000e+04, gap 0.0000%
